p cnf 166 312
-1 4 13 19 30 34 38 41 45 103 114 137 -138 -139 -140 -141 -142 -143 -144 -145 -146 -147 -148 -149 -150 -151 -152 -153 -154 -155 -159 -160 -161 -162 -163 -164 -165 -166 0 
-2 138 -137 -139 -140 -141 -142 -143 -144 -145 -146 -147 -148 -149 -150 -151 -152 -153 -154 -155 -159 -160 -161 -162 -163 -164 -165 -166 0 
-3 7 18 22 33 35 47 60 73 77 78 79 80 88 89 98 102 106 107 110 116 123 129 -4 1 13 19 30 34 38 41 45 103 114 139 -137 -138 -140 -141 -142 -143 -144 -145 -146 -147 -148 -149 -150 -151 -152 -153 -154 -155 -159 -160 -161 -162 -163 -164 -165 -166 0 
-5 11 31 42 48 51 72 74 83 90 113 115 131 132 133 135 136 -6 26 43 44 82 84 93 105 109 140 -137 -138 -139 -141 -142 -143 -144 -145 -146 -147 -148 -149 -150 -151 -152 -153 -154 -155 -159 -160 -161 -162 -163 -164 -165 -166 0 
-7 3 18 22 33 35 47 60 73 77 78 79 80 88 89 98 102 106 107 110 116 123 129 138 -137 -139 -140 -141 -142 -143 -144 -145 -146 -147 -148 -149 -150 -151 -152 -153 -154 -155 -159 -160 -161 -162 -163 -164 -165 -166 0 
-8 91 138 -137 -139 -140 -141 -142 -143 -144 -145 -146 -147 -148 -149 -150 -151 -152 -153 -154 -155 -159 -160 -161 -162 -163 -164 -165 -166 0 
-9 140 -137 -138 -139 -141 -142 -143 -144 -145 -146 -147 -148 -149 -150 -151 -152 -153 -154 -155 -159 -160 -161 -162 -163 -164 -165 -166 0 
-10 46 -9 141 -137 -138 -139 -140 -142 -143 -144 -145 -146 -147 -148 -149 -150 -151 -152 -153 -154 -155 -159 -160 -161 -162 -163 -164 -165 -166 0 
-9 141 -137 -138 -139 -140 -142 -143 -144 -145 -146 -147 -148 -149 -150 -151 -152 -153 -154 -155 -159 -160 -161 -162 -163 -164 -165 -166 0 
-11 5 31 42 48 51 72 74 83 90 113 115 131 132 133 135 136 -12 138 -137 -139 -140 -141 -142 -143 -144 -145 -146 -147 -148 -149 -150 -151 -152 -153 -154 -155 -159 -160 -161 -162 -163 -164 -165 -166 0 
-13 1 4 19 30 34 38 41 45 103 114 138 -137 -139 -140 -141 -142 -143 -144 -145 -146 -147 -148 -149 -150 -151 -152 -153 -154 -155 -159 -160 -161 -162 -163 -164 -165 -166 0 
-14 139 -137 -138 -140 -141 -142 -143 -144 -145 -146 -147 -148 -149 -150 -151 -152 -153 -154 -155 -159 -160 -161 -162 -163 -164 -165 -166 0 
-15 76 -7 3 18 22 33 35 47 60 73 77 78 79 80 88 89 98 102 106 107 110 116 123 129 138 -137 -139 -140 -141 -142 -143 -144 -145 -146 -147 -148 -149 -150 -151 -152 -153 -154 -155 -159 -160 -161 -162 -163 -164 -165 -166 0 
-16 -17 63 137 -138 -139 -140 -141 -142 -143 -144 -145 -146 -147 -148 -149 -150 -151 -152 -153 -154 -155 -159 -160 -161 -162 -163 -164 -165 -166 0 
-5 11 31 42 48 51 72 74 83 90 113 115 131 132 133 135 136 140 -137 -138 -139 -141 -142 -143 -144 -145 -146 -147 -148 -149 -150 -151 -152 -153 -154 -155 -159 -160 -161 -162 -163 -164 -165 -166 0 
-18 3 7 22 33 35 47 60 73 77 78 79 80 88 89 98 102 106 107 110 116 123 129 140 -137 -138 -139 -141 -142 -143 -144 -145 -146 -147 -148 -149 -150 -151 -152 -153 -154 -155 -159 -160 -161 -162 -163 -164 -165 -166 0 
-19 1 4 13 30 34 38 41 45 103 114 137 -138 -139 -140 -141 -142 -143 -144 -145 -146 -147 -148 -149 -150 -151 -152 -153 -154 -155 -159 -160 -161 -162 -163 -164 -165 -166 0 
-12 -11 5 31 42 48 51 72 74 83 90 113 115 131 132 133 135 136 138 -137 -139 -140 -141 -142 -143 -144 -145 -146 -147 -148 -149 -150 -151 -152 -153 -154 -155 -159 -160 -161 -162 -163 -164 -165 -166 0 
-20 140 -137 -138 -139 -141 -142 -143 -144 -145 -146 -147 -148 -149 -150 -151 -152 -153 -154 -155 -159 -160 -161 -162 -163 -164 -165 -166 0 
-21 65 140 -137 -138 -139 -141 -142 -143 -144 -145 -146 -147 -148 -149 -150 -151 -152 -153 -154 -155 -159 -160 -161 -162 -163 -164 -165 -166 0 
-22 3 7 18 33 35 47 60 73 77 78 79 80 88 89 98 102 106 107 110 116 123 129 140 -137 -138 -139 -141 -142 -143 -144 -145 -146 -147 -148 -149 -150 -151 -152 -153 -154 -155 -159 -160 -161 -162 -163 -164 -165 -166 0 
-23 -24 118 142 -137 -138 -139 -140 -141 -143 -144 -145 -146 -147 -148 -149 -150 -151 -152 -153 -154 -155 -159 -160 -161 -162 -163 -164 -165 -166 0 
-25 -26 6 43 44 82 84 93 105 109 140 -137 -138 -139 -141 -142 -143 -144 -145 -146 -147 -148 -149 -150 -151 -152 -153 -154 -155 -159 -160 -161 -162 -163 -164 -165 -166 0 
-27 134 -11 5 31 42 48 51 72 74 83 90 113 115 131 132 133 135 136 138 -137 -139 -140 -141 -142 -143 -144 -145 -146 -147 -148 -149 -150 -151 -152 -153 -154 -155 -159 -160 -161 -162 -163 -164 -165 -166 0 
-3 7 18 22 33 35 47 60 73 77 78 79 80 88 89 98 102 106 107 110 116 123 129 139 -137 -138 -140 -141 -142 -143 -144 -145 -146 -147 -148 -149 -150 -151 -152 -153 -154 -155 -159 -160 -161 -162 -163 -164 -165 -166 0 
-28 138 -137 -139 -140 -141 -142 -143 -144 -145 -146 -147 -148 -149 -150 -151 -152 -153 -154 -155 -159 -160 -161 -162 -163 -164 -165 -166 0 
-29 108 -30 1 4 13 19 34 38 41 45 103 114 -22 3 7 18 33 35 47 60 73 77 78 79 80 88 89 98 102 106 107 110 116 123 129 140 -137 -138 -139 -141 -142 -143 -144 -145 -146 -147 -148 -149 -150 -151 -152 -153 -154 -155 -159 -160 -161 -162 -163 -164 -165 -166 0 
-31 5 11 42 48 51 72 74 83 90 113 115 131 132 133 135 136 140 -137 -138 -139 -141 -142 -143 -144 -145 -146 -147 -148 -149 -150 -151 -152 -153 -154 -155 -159 -160 -161 -162 -163 -164 -165 -166 0 
-32 -33 3 7 18 22 35 47 60 73 77 78 79 80 88 89 98 102 106 107 110 116 123 129 143 -137 -138 -139 -140 -141 -142 -144 -145 -146 -147 -148 -149 -150 -151 -152 -153 -154 -155 -159 -160 -161 -162 -163 -164 -165 -166 0 
-34 1 4 13 19 30 38 41 45 103 114 143 -137 -138 -139 -140 -141 -142 -144 -145 -146 -147 -148 -149 -150 -151 -152 -153 -154 -155 -159 -160 -161 -162 -163 -164 -165 -166 0 
-32 -35 3 7 18 22 33 47 60 73 77 78 79 80 88 89 98 102 106 107 110 116 123 129 143 -137 -138 -139 -140 -141 -142 -144 -145 -146 -147 -148 -149 -150 -151 -152 -153 -154 -155 -159 -160 -161 -162 -163 -164 -165 -166 0 
-32 -36 39 144 -137 -138 -139 -140 -141 -142 -143 -145 -146 -147 -148 -149 -150 -151 -152 -153 -154 -155 -159 -160 -161 -162 -163 -164 -165 -166 0 
-37 -38 1 4 13 19 30 34 41 45 103 114 145 -137 -138 -139 -140 -141 -142 -143 -144 -146 -147 -148 -149 -150 -151 -152 -153 -154 -155 -159 -160 -161 -162 -163 -164 -165 -166 0 
-32 -39 36 144 -137 -138 -139 -140 -141 -142 -143 -145 -146 -147 -148 -149 -150 -151 -152 -153 -154 -155 -159 -160 -161 -162 -163 -164 -165 -166 0 
-40 145 -137 -138 -139 -140 -141 -142 -143 -144 -146 -147 -148 -149 -150 -151 -152 -153 -154 -155 -159 -160 -161 -162 -163 -164 -165 -166 0 
-41 1 4 13 19 30 34 38 45 103 114 146 -137 -138 -139 -140 -141 -142 -143 -144 -145 -147 -148 -149 -150 -151 -152 -153 -154 -155 -159 -160 -161 -162 -163 -164 -165 -166 0 
-42 5 11 31 48 51 72 74 83 90 113 115 131 132 133 135 136 139 -137 -138 -140 -141 -142 -143 -144 -145 -146 -147 -148 -149 -150 -151 -152 -153 -154 -155 -159 -160 -161 -162 -163 -164 -165 -166 0 
-29 108 -20 140 -137 -138 -139 -141 -142 -143 -144 -145 -146 -147 -148 -149 -150 -151 -152 -153 -154 -155 -159 -160 -161 -162 -163 -164 -165 -166 0 
-22 3 7 18 33 35 47 60 73 77 78 79 80 88 89 98 102 106 107 110 116 123 129 -5 11 31 42 48 51 72 74 83 90 113 115 131 132 133 135 136 140 -137 -138 -139 -141 -142 -143 -144 -145 -146 -147 -148 -149 -150 -151 -152 -153 -154 -155 -159 -160 -161 -162 -163 -164 -165 -166 0 
-43 6 26 44 82 84 93 105 109 137 -138 -139 -140 -141 -142 -143 -144 -145 -146 -147 -148 -149 -150 -151 -152 -153 -154 -155 -159 -160 -161 -162 -163 -164 -165 -166 0 
-44 6 26 43 82 84 93 105 109 147 -137 -138 -139 -140 -141 -142 -143 -144 -145 -146 -148 -149 -150 -151 -152 -153 -154 -155 -159 -160 -161 -162 -163 -164 -165 -166 0 
-45 1 4 13 19 30 34 38 41 103 114 -46 10 148 -137 -138 -139 -140 -141 -142 -143 -144 -145 -146 -147 -149 -150 -151 -152 -153 -154 -155 -159 -160 -161 -162 -163 -164 -165 -166 0 
-24 118 149 -137 -138 -139 -140 -141 -142 -143 -144 -145 -146 -147 -148 -150 -151 -152 -153 -154 -155 -159 -160 -161 -162 -163 -164 -165 -166 0 
-47 3 7 18 22 33 35 60 73 77 78 79 80 88 89 98 102 106 107 110 116 123 129 147 -137 -138 -139 -140 -141 -142 -143 -144 -145 -146 -148 -149 -150 -151 -152 -153 -154 -155 -159 -160 -161 -162 -163 -164 -165 -166 0 
-48 5 11 31 42 51 72 74 83 90 113 115 131 132 133 135 136 147 -137 -138 -139 -140 -141 -142 -143 -144 -145 -146 -148 -149 -150 -151 -152 -153 -154 -155 -159 -160 -161 -162 -163 -164 -165 -166 0 
-49 64 92 150 -137 -138 -139 -140 -141 -142 -143 -144 -145 -146 -147 -148 -149 -151 -152 -153 -154 -155 -159 -160 -161 -162 -163 -164 -165 -166 0 
-7 3 18 22 33 35 47 60 73 77 78 79 80 88 89 98 102 106 107 110 116 123 129 -50 138 -137 -139 -140 -141 -142 -143 -144 -145 -146 -147 -148 -149 -150 -151 -152 -153 -154 -155 -159 -160 -161 -162 -163 -164 -165 -166 0 
-51 5 11 31 42 48 72 74 83 90 113 115 131 132 133 135 136 147 -137 -138 -139 -140 -141 -142 -143 -144 -145 -146 -148 -149 -150 -151 -152 -153 -154 -155 -159 -160 -161 -162 -163 -164 -165 -166 0 
-52 140 -137 -138 -139 -141 -142 -143 -144 -145 -146 -147 -148 -149 -150 -151 -152 -153 -154 -155 -159 -160 -161 -162 -163 -164 -165 -166 0 
-53 -54 137 -138 -139 -140 -141 -142 -143 -144 -145 -146 -147 -148 -149 -150 -151 -152 -153 -154 -155 -159 -160 -161 -162 -163 -164 -165 -166 0 
-45 1 4 13 19 30 34 38 41 103 114 -53 137 -138 -139 -140 -141 -142 -143 -144 -145 -146 -147 -148 -149 -150 -151 -152 -153 -154 -155 -159 -160 -161 -162 -163 -164 -165 -166 0 
-55 56 58 144 -137 -138 -139 -140 -141 -142 -143 -145 -146 -147 -148 -149 -150 -151 -152 -153 -154 -155 -159 -160 -161 -162 -163 -164 -165 -166 0 
-30 1 4 13 19 34 38 41 45 103 114 -54 140 -137 -138 -139 -141 -142 -143 -144 -145 -146 -147 -148 -149 -150 -151 -152 -153 -154 -155 -159 -160 -161 -162 -163 -164 -165 -166 0 
-56 55 58 -57 140 -137 -138 -139 -141 -142 -143 -144 -145 -146 -147 -148 -149 -150 -151 -152 -153 -154 -155 -159 -160 -161 -162 -163 -164 -165 -166 0 
-58 55 56 -5 11 31 42 48 51 72 74 83 90 113 115 131 132 133 135 136 140 -137 -138 -139 -141 -142 -143 -144 -145 -146 -147 -148 -149 -150 -151 -152 -153 -154 -155 -159 -160 -161 -162 -163 -164 -165 -166 0 
-5 11 31 42 48 51 72 74 83 90 113 115 131 132 133 135 136 -45 1 4 13 19 30 34 38 41 103 114 -22 3 7 18 33 35 47 60 73 77 78 79 80 88 89 98 102 106 107 110 116 123 129 140 -137 -138 -139 -141 -142 -143 -144 -145 -146 -147 -148 -149 -150 -151 -152 -153 -154 -155 -159 -160 -161 -162 -163 -164 -165 -166 0 
-11 5 31 42 48 51 72 74 83 90 113 115 131 132 133 135 136 138 -137 -139 -140 -141 -142 -143 -144 -145 -146 -147 -148 -149 -150 -151 -152 -153 -154 -155 -159 -160 -161 -162 -163 -164 -165 -166 0 
-59 68 130 138 -137 -139 -140 -141 -142 -143 -144 -145 -146 -147 -148 -149 -150 -151 -152 -153 -154 -155 -159 -160 -161 -162 -163 -164 -165 -166 0 
-4 1 13 19 30 34 38 41 45 103 114 139 -137 -138 -140 -141 -142 -143 -144 -145 -146 -147 -148 -149 -150 -151 -152 -153 -154 -155 -159 -160 -161 -162 -163 -164 -165 -166 0 
-15 76 -60 3 7 18 22 33 35 47 73 77 78 79 80 88 89 98 102 106 107 110 116 123 129 143 -137 -138 -139 -140 -141 -142 -144 -145 -146 -147 -148 -149 -150 -151 -152 -153 -154 -155 -159 -160 -161 -162 -163 -164 -165 -166 0 
-61 149 -137 -138 -139 -140 -141 -142 -143 -144 -145 -146 -147 -148 -150 -151 -152 -153 -154 -155 -159 -160 -161 -162 -163 -164 -165 -166 0 
-62 126 151 -137 -138 -139 -140 -141 -142 -143 -144 -145 -146 -147 -148 -149 -150 -152 -153 -154 -155 -159 -160 -161 -162 -163 -164 -165 -166 0 
-63 17 -7 3 18 22 33 35 47 60 73 77 78 79 80 88 89 98 102 106 107 110 116 123 129 138 -137 -139 -140 -141 -142 -143 -144 -145 -146 -147 -148 -149 -150 -151 -152 -153 -154 -155 -159 -160 -161 -162 -163 -164 -165 -166 0 
-64 49 92 151 -137 -138 -139 -140 -141 -142 -143 -144 -145 -146 -147 -148 -149 -150 -152 -153 -154 -155 -159 -160 -161 -162 -163 -164 -165 -166 0 
-65 21 -66 146 -137 -138 -139 -140 -141 -142 -143 -144 -145 -147 -148 -149 -150 -151 -152 -153 -154 -155 -159 -160 -161 -162 -163 -164 -165 -166 0 
-67 151 -137 -138 -139 -140 -141 -142 -143 -144 -145 -146 -147 -148 -149 -150 -152 -153 -154 -155 -159 -160 -161 -162 -163 -164 -165 -166 0 
-68 59 130 143 -137 -138 -139 -140 -141 -142 -144 -145 -146 -147 -148 -149 -150 -151 -152 -153 -154 -155 -159 -160 -161 -162 -163 -164 -165 -166 0 
-69 152 -137 -138 -139 -140 -141 -142 -143 -144 -145 -146 -147 -148 -149 -150 -151 -153 -154 -155 -159 -160 -161 -162 -163 -164 -165 -166 0 
-70 152 -137 -138 -139 -140 -141 -142 -143 -144 -145 -146 -147 -148 -149 -150 -151 -153 -154 -155 -159 -160 -161 -162 -163 -164 -165 -166 0 
-71 140 -137 -138 -139 -141 -142 -143 -144 -145 -146 -147 -148 -149 -150 -151 -152 -153 -154 -155 -159 -160 -161 -162 -163 -164 -165 -166 0 
-63 17 -5 11 31 42 48 51 72 74 83 90 113 115 131 132 133 135 136 140 -137 -138 -139 -141 -142 -143 -144 -145 -146 -147 -148 -149 -150 -151 -152 -153 -154 -155 -159 -160 -161 -162 -163 -164 -165 -166 0 
-72 5 11 31 42 48 51 74 83 90 113 115 131 132 133 135 136 138 -137 -139 -140 -141 -142 -143 -144 -145 -146 -147 -148 -149 -150 -151 -152 -153 -154 -155 -159 -160 -161 -162 -163 -164 -165 -166 0 
-64 49 92 -73 3 7 18 22 33 35 47 60 77 78 79 80 88 89 98 102 106 107 110 116 123 129 151 -137 -138 -139 -140 -141 -142 -143 -144 -145 -146 -147 -148 -149 -150 -152 -153 -154 -155 -159 -160 -161 -162 -163 -164 -165 -166 0 
-74 5 11 31 42 48 51 72 83 90 113 115 131 132 133 135 136 -15 76 151 -137 -138 -139 -140 -141 -142 -143 -144 -145 -146 -147 -148 -149 -150 -152 -153 -154 -155 -159 -160 -161 -162 -163 -164 -165 -166 0 
-75 151 -137 -138 -139 -140 -141 -142 -143 -144 -145 -146 -147 -148 -149 -150 -152 -153 -154 -155 -159 -160 -161 -162 -163 -164 -165 -166 0 
-76 15 -20 140 -137 -138 -139 -141 -142 -143 -144 -145 -146 -147 -148 -149 -150 -151 -152 -153 -154 -155 -159 -160 -161 -162 -163 -164 -165 -166 0 
-24 118 141 -137 -138 -139 -140 -142 -143 -144 -145 -146 -147 -148 -149 -150 -151 -152 -153 -154 -155 -159 -160 -161 -162 -163 -164 -165 -166 0 
-10 46 -24 118 141 -137 -138 -139 -140 -142 -143 -144 -145 -146 -147 -148 -149 -150 -151 -152 -153 -154 -155 -159 -160 -161 -162 -163 -164 -165 -166 0 
-77 3 7 18 22 33 35 47 60 73 78 79 80 88 89 98 102 106 107 110 116 123 129 153 -137 -138 -139 -140 -141 -142 -143 -144 -145 -146 -147 -148 -149 -150 -151 -152 -154 -155 -159 -160 -161 -162 -163 -164 -165 -166 0 
-78 3 7 18 22 33 35 47 60 73 77 79 80 88 89 98 102 106 107 110 116 123 129 153 -137 -138 -139 -140 -141 -142 -143 -144 -145 -146 -147 -148 -149 -150 -151 -152 -154 -155 -159 -160 -161 -162 -163 -164 -165 -166 0 
-79 3 7 18 22 33 35 47 60 73 77 78 80 88 89 98 102 106 107 110 116 123 129 153 -137 -138 -139 -140 -141 -142 -143 -144 -145 -146 -147 -148 -149 -150 -151 -152 -154 -155 -159 -160 -161 -162 -163 -164 -165 -166 0 
-80 3 7 18 22 33 35 47 60 73 77 78 79 88 89 98 102 106 107 110 116 123 129 137 -138 -139 -140 -141 -142 -143 -144 -145 -146 -147 -148 -149 -150 -151 -152 -153 -154 -155 -159 -160 -161 -162 -163 -164 -165 -166 0 
-12 -81 154 -137 -138 -139 -140 -141 -142 -143 -144 -145 -146 -147 -148 -149 -150 -151 -152 -153 -155 -159 -160 -161 -162 -163 -164 -165 -166 0 
-22 3 7 18 33 35 47 60 73 77 78 79 80 88 89 98 102 106 107 110 116 123 129 -82 6 26 43 44 84 93 105 109 140 -137 -138 -139 -141 -142 -143 -144 -145 -146 -147 -148 -149 -150 -151 -152 -153 -154 -155 -159 -160 -161 -162 -163 -164 -165 -166 0 
-83 5 11 31 42 48 51 72 74 90 113 115 131 132 133 135 136 154 -137 -138 -139 -140 -141 -142 -143 -144 -145 -146 -147 -148 -149 -150 -151 -152 -153 -155 -159 -160 -161 -162 -163 -164 -165 -166 0 
-84 6 26 43 44 82 93 105 109 150 -137 -138 -139 -140 -141 -142 -143 -144 -145 -146 -147 -148 -149 -151 -152 -153 -154 -155 -159 -160 -161 -162 -163 -164 -165 -166 0 
-75 150 -137 -138 -139 -140 -141 -142 -143 -144 -145 -146 -147 -148 -149 -151 -152 -153 -154 -155 -159 -160 -161 -162 -163 -164 -165 -166 0 
-85 150 -137 -138 -139 -140 -141 -142 -143 -144 -145 -146 -147 -148 -149 -151 -152 -153 -154 -155 -159 -160 -161 -162 -163 -164 -165 -166 0 
-86 142 -137 -138 -139 -140 -141 -143 -144 -145 -146 -147 -148 -149 -150 -151 -152 -153 -154 -155 -159 -160 -161 -162 -163 -164 -165 -166 0 
-12 -87 138 -137 -139 -140 -141 -142 -143 -144 -145 -146 -147 -148 -149 -150 -151 -152 -153 -154 -155 -159 -160 -161 -162 -163 -164 -165 -166 0 
-63 17 -88 3 7 18 22 33 35 47 60 73 77 78 79 80 89 98 102 106 107 110 116 123 129 149 -137 -138 -139 -140 -141 -142 -143 -144 -145 -146 -147 -148 -150 -151 -152 -153 -154 -155 -159 -160 -161 -162 -163 -164 -165 -166 0 
-89 3 7 18 22 33 35 47 60 73 77 78 79 80 88 98 102 106 107 110 116 123 129 -25 152 -137 -138 -139 -140 -141 -142 -143 -144 -145 -146 -147 -148 -149 -150 -151 -153 -154 -155 -159 -160 -161 -162 -163 -164 -165 -166 0 
-90 5 11 31 42 48 51 72 74 83 113 115 131 132 133 135 136 155 -137 -138 -139 -140 -141 -142 -143 -144 -145 -146 -147 -148 -149 -150 -151 -152 -153 -154 -159 -160 -161 -162 -163 -164 -165 -166 0 
-91 8 138 -137 -139 -140 -141 -142 -143 -144 -145 -146 -147 -148 -149 -150 -151 -152 -153 -154 -155 -159 -160 -161 -162 -163 -164 -165 -166 0 
-5 11 31 42 48 51 72 74 83 90 113 115 131 132 133 135 136 -30 1 4 13 19 34 38 41 45 103 114 140 -137 -138 -139 -141 -142 -143 -144 -145 -146 -147 -148 -149 -150 -151 -152 -153 -154 -155 -159 -160 -161 -162 -163 -164 -165 -166 0 
-87 138 -137 -139 -140 -141 -142 -143 -144 -145 -146 -147 -148 -149 -150 -151 -152 -153 -154 -155 -159 -160 -161 -162 -163 -164 -165 -166 0 
-92 49 64 -93 6 26 43 44 82 84 105 109 156 -94 -137 -138 -139 -140 -141 -142 -143 -144 -145 -146 -147 -148 -149 -150 -151 -152 -153 -154 -155 -159 -160 -161 -162 -163 -164 -165 -166 0 
-94 -86 142 -137 -138 -139 -140 -141 -143 -144 -145 -146 -147 -148 -149 -150 -151 -152 -153 -154 -155 -159 -160 -161 -162 -163 -164 -165 -166 0 
-92 49 64 157 -137 -138 -139 -140 -141 -142 -143 -144 -145 -146 -147 -148 -149 -150 -151 -152 -153 -154 -155 -159 -160 -161 -162 -163 -164 -165 -166 0 
-95 96 158 -137 -138 -139 -140 -141 -142 -143 -144 -145 -146 -147 -148 -149 -150 -151 -152 -153 -154 -155 -159 -160 -161 -162 -163 -164 -165 -166 0 
-96 95 157 -137 -138 -139 -140 -141 -142 -143 -144 -145 -146 -147 -148 -149 -150 -151 -152 -153 -154 -155 -159 -160 -161 -162 -163 -164 -165 -166 0 
-97 119 158 -137 -138 -139 -140 -141 -142 -143 -144 -145 -146 -147 -148 -149 -150 -151 -152 -153 -154 -155 -159 -160 -161 -162 -163 -164 -165 -166 0 
-92 49 64 -98 3 7 18 22 33 35 47 60 73 77 78 79 80 88 89 102 106 107 110 116 123 129 -99 120 124 156 -94 -137 -138 -139 -140 -141 -142 -143 -144 -145 -146 -147 -148 -149 -150 -151 -152 -153 -154 -155 -159 -160 -161 -162 -163 -164 -165 -166 0 
-96 95 158 -137 -138 -139 -140 -141 -142 -143 -144 -145 -146 -147 -148 -149 -150 -151 -152 -153 -154 -155 -159 -160 -161 -162 -163 -164 -165 -166 0 
-96 95 156 -94 -137 -138 -139 -140 -141 -142 -143 -144 -145 -146 -147 -148 -149 -150 -151 -152 -153 -154 -155 -159 -160 -161 -162 -163 -164 -165 -166 0 
-100 -86 142 -137 -138 -139 -140 -141 -143 -144 -145 -146 -147 -148 -149 -150 -151 -152 -153 -154 -155 -159 -160 -161 -162 -163 -164 -165 -166 0 
-101 117 -22 3 7 18 33 35 47 60 73 77 78 79 80 88 89 98 102 106 107 110 116 123 129 140 -137 -138 -139 -141 -142 -143 -144 -145 -146 -147 -148 -149 -150 -151 -152 -153 -154 -155 -159 -160 -161 -162 -163 -164 -165 -166 0 
-102 3 7 18 22 33 35 47 60 73 77 78 79 80 88 89 98 106 107 110 116 123 129 159 -137 -138 -139 -140 -141 -142 -143 -144 -145 -146 -147 -148 -149 -150 -151 -152 -153 -154 -155 -160 -161 -162 -163 -164 -165 -166 0 
-103 1 4 13 19 30 34 38 41 45 114 143 -137 -138 -139 -140 -141 -142 -144 -145 -146 -147 -148 -149 -150 -151 -152 -153 -154 -155 -159 -160 -161 -162 -163 -164 -165 -166 0 
-104 146 -137 -138 -139 -140 -141 -142 -143 -144 -145 -147 -148 -149 -150 -151 -152 -153 -154 -155 -159 -160 -161 -162 -163 -164 -165 -166 0 
-105 6 26 43 44 82 84 93 109 146 -137 -138 -139 -140 -141 -142 -143 -144 -145 -147 -148 -149 -150 -151 -152 -153 -154 -155 -159 -160 -161 -162 -163 -164 -165 -166 0 
-106 3 7 18 22 33 35 47 60 73 77 78 79 80 88 89 98 102 107 110 116 123 129 160 -137 -138 -139 -140 -141 -142 -143 -144 -145 -146 -147 -148 -149 -150 -151 -152 -153 -154 -155 -159 -161 -162 -163 -164 -165 -166 0 
-107 3 7 18 22 33 35 47 60 73 77 78 79 80 88 89 98 102 106 110 116 123 129 145 -137 -138 -139 -140 -141 -142 -143 -144 -146 -147 -148 -149 -150 -151 -152 -153 -154 -155 -159 -160 -161 -162 -163 -164 -165 -166 0 
-108 29 -109 6 26 43 44 82 84 93 105 152 -137 -138 -139 -140 -141 -142 -143 -144 -145 -146 -147 -148 -149 -150 -151 -153 -154 -155 -159 -160 -161 -162 -163 -164 -165 -166 0 
-110 3 7 18 22 33 35 47 60 73 77 78 79 80 88 89 98 102 106 107 116 123 129 146 -137 -138 -139 -140 -141 -142 -143 -144 -145 -147 -148 -149 -150 -151 -152 -153 -154 -155 -159 -160 -161 -162 -163 -164 -165 -166 0 
-27 134 -111 152 -137 -138 -139 -140 -141 -142 -143 -144 -145 -146 -147 -148 -149 -150 -151 -153 -154 -155 -159 -160 -161 -162 -163 -164 -165 -166 0 
-112 161 -137 -138 -139 -140 -141 -142 -143 -144 -145 -146 -147 -148 -149 -150 -151 -152 -153 -154 -155 -159 -160 -162 -163 -164 -165 -166 0 
-113 5 11 31 42 48 51 72 74 83 90 115 131 132 133 135 136 -114 1 4 13 19 30 34 38 41 45 103 152 -137 -138 -139 -140 -141 -142 -143 -144 -145 -146 -147 -148 -149 -150 -151 -153 -154 -155 -159 -160 -161 -162 -163 -164 -165 -166 0 
-12 145 -137 -138 -139 -140 -141 -142 -143 -144 -146 -147 -148 -149 -150 -151 -152 -153 -154 -155 -159 -160 -161 -162 -163 -164 -165 -166 0 
-115 5 11 31 42 48 51 72 74 83 90 113 131 132 133 135 136 147 -137 -138 -139 -140 -141 -142 -143 -144 -145 -146 -148 -149 -150 -151 -152 -153 -154 -155 -159 -160 -161 -162 -163 -164 -165 -166 0 
-116 3 7 18 22 33 35 47 60 73 77 78 79 80 88 89 98 102 106 107 110 123 129 147 -137 -138 -139 -140 -141 -142 -143 -144 -145 -146 -148 -149 -150 -151 -152 -153 -154 -155 -159 -160 -161 -162 -163 -164 -165 -166 0 
-9 -24 118 140 -137 -138 -139 -141 -142 -143 -144 -145 -146 -147 -148 -149 -150 -151 -152 -153 -154 -155 -159 -160 -161 -162 -163 -164 -165 -166 0 
-24 118 162 -137 -138 -139 -140 -141 -142 -143 -144 -145 -146 -147 -148 -149 -150 -151 -152 -153 -154 -155 -159 -160 -161 -163 -164 -165 -166 0 
-117 101 -9 -24 118 140 -137 -138 -139 -141 -142 -143 -144 -145 -146 -147 -148 -149 -150 -151 -152 -153 -154 -155 -159 -160 -161 -162 -163 -164 -165 -166 0 
-118 24 -24 118 146 -137 -138 -139 -140 -141 -142 -143 -144 -145 -147 -148 -149 -150 -151 -152 -153 -154 -155 -159 -160 -161 -162 -163 -164 -165 -166 0 
-119 97 142 -137 -138 -139 -140 -141 -143 -144 -145 -146 -147 -148 -149 -150 -151 -152 -153 -154 -155 -159 -160 -161 -162 -163 -164 -165 -166 0 
-120 99 124 -121 163 -137 -138 -139 -140 -141 -142 -143 -144 -145 -146 -147 -148 -149 -150 -151 -152 -153 -154 -155 -159 -160 -161 -162 -164 -165 -166 0 
-54 140 -137 -138 -139 -141 -142 -143 -144 -145 -146 -147 -148 -149 -150 -151 -152 -153 -154 -155 -159 -160 -161 -162 -163 -164 -165 -166 0 
-10 46 -122 -24 118 141 -137 -138 -139 -140 -142 -143 -144 -145 -146 -147 -148 -149 -150 -151 -152 -153 -154 -155 -159 -160 -161 -162 -163 -164 -165 -166 0 
-122 -24 118 141 -137 -138 -139 -140 -142 -143 -144 -145 -146 -147 -148 -149 -150 -151 -152 -153 -154 -155 -159 -160 -161 -162 -163 -164 -165 -166 0 
-123 3 7 18 22 33 35 47 60 73 77 78 79 80 88 89 98 102 106 107 110 116 129 -23 -24 118 137 -138 -139 -140 -141 -142 -143 -144 -145 -146 -147 -148 -149 -150 -151 -152 -153 -154 -155 -159 -160 -161 -162 -163 -164 -165 -166 0 
-124 99 120 -105 6 26 43 44 82 84 93 109 164 -137 -138 -139 -140 -141 -142 -143 -144 -145 -146 -147 -148 -149 -150 -151 -152 -153 -154 -155 -159 -160 -161 -162 -163 -165 -166 0 
-125 164 -137 -138 -139 -140 -141 -142 -143 -144 -145 -146 -147 -148 -149 -150 -151 -152 -153 -154 -155 -159 -160 -161 -162 -163 -165 -166 0 
-126 62 151 -137 -138 -139 -140 -141 -142 -143 -144 -145 -146 -147 -148 -149 -150 -152 -153 -154 -155 -159 -160 -161 -162 -163 -164 -165 -166 0 
-75 -127 151 -137 -138 -139 -140 -141 -142 -143 -144 -145 -146 -147 -148 -149 -150 -152 -153 -154 -155 -159 -160 -161 -162 -163 -164 -165 -166 0 
-128 151 -137 -138 -139 -140 -141 -142 -143 -144 -145 -146 -147 -148 -149 -150 -152 -153 -154 -155 -159 -160 -161 -162 -163 -164 -165 -166 0 
-108 29 -129 3 7 18 22 33 35 47 60 73 77 78 79 80 88 89 98 102 106 107 110 116 123 138 -137 -139 -140 -141 -142 -143 -144 -145 -146 -147 -148 -149 -150 -151 -152 -153 -154 -155 -159 -160 -161 -162 -163 -164 -165 -166 0 
-130 59 68 165 -137 -138 -139 -140 -141 -142 -143 -144 -145 -146 -147 -148 -149 -150 -151 -152 -153 -154 -155 -159 -160 -161 -162 -163 -164 -166 0 
-131 5 11 31 42 48 51 72 74 83 90 113 115 132 133 135 136 144 -137 -138 -139 -140 -141 -142 -143 -145 -146 -147 -148 -149 -150 -151 -152 -153 -154 -155 -159 -160 -161 -162 -163 -164 -165 -166 0 
-132 5 11 31 42 48 51 72 74 83 90 113 115 131 133 135 136 144 -137 -138 -139 -140 -141 -142 -143 -145 -146 -147 -148 -149 -150 -151 -152 -153 -154 -155 -159 -160 -161 -162 -163 -164 -165 -166 0 
-133 5 11 31 42 48 51 72 74 83 90 113 115 131 132 135 136 166 -137 -138 -139 -140 -141 -142 -143 -144 -145 -146 -147 -148 -149 -150 -151 -152 -153 -154 -155 -159 -160 -161 -162 -163 -164 -165 0 
-76 15 -134 27 151 -137 -138 -139 -140 -141 -142 -143 -144 -145 -146 -147 -148 -149 -150 -152 -153 -154 -155 -159 -160 -161 -162 -163 -164 -165 -166 0 
-36 39 144 -137 -138 -139 -140 -141 -142 -143 -145 -146 -147 -148 -149 -150 -151 -152 -153 -154 -155 -159 -160 -161 -162 -163 -164 -165 -166 0 
-135 5 11 31 42 48 51 72 74 83 90 113 115 131 132 133 136 161 -137 -138 -139 -140 -141 -142 -143 -144 -145 -146 -147 -148 -149 -150 -151 -152 -153 -154 -155 -159 -160 -162 -163 -164 -165 -166 0 
-32 -136 5 11 31 42 48 51 72 74 83 90 113 115 131 132 133 135 143 -137 -138 -139 -140 -141 -142 -144 -145 -146 -147 -148 -149 -150 -151 -152 -153 -154 -155 -159 -160 -161 -162 -163 -164 -165 -166 0 
-123 3 7 18 22 33 35 47 60 73 77 78 79 80 88 89 98 102 106 107 110 116 129 137 -138 -139 -140 -141 -142 -143 -144 -145 -146 -147 -148 -149 -150 -151 -152 -153 -154 -155 -159 -160 -161 -162 -163 -164 -165 -166 0 
-4 110 165 0 
64 -118 122 0 
-48 -48 89 0 
-58 89 -93 0 
-20 114 -117 0 
30 -63 124 0 
-88 -97 119 0 
-32 -51 88 0 
-63 67 -121 0 
-1 -45 -59 0 
59 -117 -140 0 
-33 80 -113 0 
-3 -72 -118 0 
19 -46 71 0 
-40 49 -112 0 
-54 -132 -162 0 
-6 -10 -142 0 
-80 -98 -141 0 
102 -157 -161 0 
-12 41 166 0 
76 140 155 0 
-77 -126 151 0 
-31 -94 -127 0 
6 14 -121 0 
-18 -71 115 0 
3 81 142 0 
-21 -138 152 0 
35 95 -99 0 
-14 122 148 0 
51 84 -149 0 
-68 -106 141 0 
-20 22 61 0 
12 -113 151 0 
-72 -83 -114 0 
31 -65 101 0 
-33 -42 -158 0 
6 -55 145 0 
75 -75 107 0 
-113 -139 161 0 
30 57 69 0 
-98 -122 142 0 
-63 -76 160 0 
-3 -85 -97 0 
-11 67 -152 0 
34 -70 137 0 
11 -43 -94 0 
-19 37 -119 0 
13 29 -78 0 
-38 104 154 0 
-24 68 93 0 
-59 -69 -150 0 
-70 -77 -146 0 
-21 60 80 0 
-38 93 102 0 
30 42 -80 0 
-21 50 129 0 
17 63 67 0 
14 -21 -127 0 
26 66 109 0 
85 101 118 0 
-15 -46 -97 0 
38 78 86 0 
-45 -140 155 0 
-19 -125 -127 0 
20 25 115 0 
47 145 156 0 
-9 -24 -107 0 
-24 -50 162 0 
87 -132 152 0 
3 -14 80 0 
-19 90 -134 0 
18 -23 49 0 
31 37 -155 0 
-39 56 -147 0 
15 105 111 0 
7 19 107 0 
-53 81 151 0 
57 -118 122 0 
-78 -103 153 0 
54 -105 -162 0 
6 84 124 0 
12 63 162 0 
-77 -93 144 0 
5 14 26 0 
43 64 -166 0 
-12 85 92 0 
-9 -72 144 0 
55 119 142 0 
28 -69 165 0 
64 -78 120 0 
-97 109 -137 0 
-42 -81 166 0 
29 121 131 0 
1 -34 -58 0 
36 -148 153 0 
76 112 -157 0 
-108 144 -165 0 
8 67 -161 0 
44 81 -132 0 
57 86 -157 0 
22 -67 -113 0 
-42 -66 -139 0 
-53 129 142 0 
-93 -127 -131 0 
-50 -126 -136 0 
12 65 -158 0 
7 117 154 0 
87 113 -142 0 
-9 15 93 0 
18 -39 143 0 
-91 -128 143 0 
50 62 -97 0 
31 45 -53 0 
19 26 98 0 
-34 -62 123 0 
-5 125 -158 0 
7 110 128 0 
19 94 142 0 
20 -107 -154 0 
-25 -60 102 0 
-40 -87 -110 0 
-38 -83 -134 0 
11 99 -120 0 
-94 -105 -147 0 
41 115 134 0 
16 21 143 0 
33 133 -146 0 
56 -67 90 0 
95 118 160 0 
-48 -63 72 0 
35 -50 -125 0 
32 127 158 0 
-62 -82 137 0 
2 -53 -106 0 
-31 -52 -76 0 
48 118 -158 0 
74 92 142 0 
-48 -117 117 0 
-18 -47 48 0 
21 150 -159 0 
19 82 158 0 
21 -132 140 0 
108 136 -145 0 
-133 -137 141 0 
36 55 157 0 
-11 31 -51 0 
65 -102 -124 0 
-17 41 149 0 
-60 -125 126 0 
30 -91 105 0 
-61 125 125 0 
81 137 -151 0 
-42 -62 88 0 
-1 -30 -89 0 
-35 38 -112 0 
-46 58 -65 0 
69 109 -115 0 
-5 50 79 0 
110 -140 -140 0 
93 -162 166 0 
20 77 -154 0 
-12 109 164 0 
2 -53 -140 0 
70 95 -121 0 
13 130 -155 0 
-22 -63 147 0 
